(set-logic QF_LIA)
(declare-fun x0 () Int)
(declare-fun x1 () Int)
(declare-fun x2 () Int)
(declare-fun x3 () Int)
(declare-fun x4 () Int)
(declare-fun x5 () Int)
(declare-fun x6 () Int)
(declare-fun x7 () Int)
(declare-fun x8 () Int)
(declare-fun x9 () Int)
(declare-fun A0 () Bool)
(declare-fun A1 () Bool)
(declare-fun A2 () Bool)
(declare-fun A3 () Bool)
(declare-fun A4 () Bool)
(declare-fun A5 () Bool)
(declare-fun A6 () Bool)
(declare-fun A7 () Bool)
(declare-fun A8 () Bool)
(declare-fun A9 () Bool)
(assert (let ((.def_0 (* (- 1) x3))) (let ((.def_1 (* 1 x6))) (let ((.def_2 (+ .def_1 .def_0))) (let ((.def_3 (< .def_2 (- 1)))) (let ((.def_4 (not .def_3))) (let ((.def_5 (* 1 x5))) (let ((.def_6 (< .def_5 (- 1)))) (let ((.def_7 (not .def_6))) (let ((.def_8 (and .def_7 .def_4))) (let ((.def_9 (not .def_8))) (let ((.def_10 (< .def_5 1))) (let ((.def_11 (not .def_10))) (let ((.def_12 (* (- 1) x1))) (let ((.def_13 (+ .def_12 .def_0))) (let ((.def_14 (< .def_13 1))) (let ((.def_15 (or .def_14 .def_11))) (let ((.def_16 (not .def_15))) (let ((.def_17 (= .def_16 .def_9))) (let ((.def_18 (not A0))) (let ((.def_19 (* (- 1) x2))) (let ((.def_20 (< .def_19 (- 1)))) (let ((.def_21 (and .def_20 .def_18))) (let ((.def_22 (not .def_21))) (let ((.def_23 (* 1 x7))) (let ((.def_24 (* 1 x0))) (let ((.def_25 (+ .def_24 .def_23))) (let ((.def_26 (< .def_25 1))) (let ((.def_27 (not .def_26))) (let ((.def_28 (+ .def_24 .def_12))) (let ((.def_29 (< .def_28 1))) (let ((.def_30 (or .def_29 .def_27))) (let ((.def_31 (not .def_30))) (let ((.def_32 (or .def_31 .def_22))) (let ((.def_33 (not .def_32))) (let ((.def_34 (and .def_33 .def_17))) (let ((.def_35 (not .def_34))) (let ((.def_36 (not A1))) (let ((.def_37 (not A4))) (let ((.def_38 (or .def_37 .def_36))) (let ((.def_39 (not A2))) (let ((.def_40 (* 1 x4))) (let ((.def_41 (< .def_40 (- 1)))) (let ((.def_42 (not .def_41))) (let ((.def_43 (or .def_42 .def_39))) (let ((.def_44 (not .def_43))) (let ((.def_45 (and .def_44 .def_38))) (let ((.def_46 (* (- 1) x5))) (let ((.def_47 (< .def_46 (- 1)))) (let ((.def_48 (= .def_18 .def_47))) (let ((.def_49 (not .def_48))) (let ((.def_50 (not A3))) (let ((.def_51 (or .def_50 A3))) (let ((.def_52 (and .def_51 .def_49))) (let ((.def_53 (not .def_52))) (let ((.def_54 (and .def_53 .def_45))) (let ((.def_55 (and .def_54 .def_35))) (let ((.def_56 (< .def_1 (- 1)))) (let ((.def_57 (< .def_0 1))) (let ((.def_58 (and .def_57 .def_56))) (let ((.def_59 (* 1 x3))) (let ((.def_60 (< .def_59 (- 1)))) (let ((.def_61 (* (- 1) x4))) (let ((.def_62 (< .def_61 1))) (let ((.def_63 (= .def_62 .def_60))) (let ((.def_64 (and .def_63 .def_58))) (let ((.def_65 (not .def_64))) (let ((.def_66 (not A7))) (let ((.def_67 (* (- 1) x7))) (let ((.def_68 (< .def_67 (- 1)))) (let ((.def_69 (or .def_68 .def_66))) (let ((.def_70 (not .def_69))) (let ((.def_71 (+ .def_24 .def_67))) (let ((.def_72 (< .def_71 1))) (let ((.def_73 (* 1 x1))) (let ((.def_74 (* (- 1) x9))) (let ((.def_75 (+ .def_74 .def_73))) (let ((.def_76 (< .def_75 (- 1)))) (let ((.def_77 (not .def_76))) (let ((.def_78 (= .def_77 .def_72))) (let ((.def_79 (not .def_78))) (let ((.def_80 (or .def_79 .def_70))) (let ((.def_81 (not .def_80))) (let ((.def_82 (and .def_81 .def_65))) (let ((.def_83 (and A0 .def_50))) (let ((.def_84 (or .def_7 A9))) (let ((.def_85 (and .def_84 .def_83))) (let ((.def_86 (= .def_18 A6))) (let ((.def_87 (not .def_86))) (let ((.def_88 (* 1 x8))) (let ((.def_89 (+ .def_61 .def_88))) (let ((.def_90 (< .def_89 (- 1)))) (let ((.def_91 (not .def_90))) (let ((.def_92 (< .def_1 1))) (let ((.def_93 (not .def_92))) (let ((.def_94 (and .def_93 .def_91))) (let ((.def_95 (and .def_94 .def_87))) (let ((.def_96 (and .def_95 .def_85))) (let ((.def_97 (or .def_96 .def_82))) (let ((.def_98 (not .def_97))) (let ((.def_99 (or .def_98 .def_55))) (let ((.def_100 (+ .def_46 .def_24))) (let ((.def_101 (< .def_100 1))) (let ((.def_102 (or .def_101 A8))) (let ((.def_103 (not .def_102))) (let ((.def_104 (* (- 1) x8))) (let ((.def_105 (+ .def_104 .def_61))) (let ((.def_106 (< .def_105 (- 1)))) (let ((.def_107 (+ .def_46 .def_88))) (let ((.def_108 (< .def_107 (- 1)))) (let ((.def_109 (or .def_108 .def_106))) (let ((.def_110 (not .def_109))) (let ((.def_111 (or .def_110 .def_103))) (let ((.def_112 (not .def_111))) (let ((.def_113 (+ .def_5 .def_104))) (let ((.def_114 (< .def_113 1))) (let ((.def_115 (not .def_114))) (let ((.def_116 (or A9 .def_115))) (let ((.def_117 (* 1 x9))) (let ((.def_118 (< .def_117 1))) (let ((.def_119 (not .def_118))) (let ((.def_120 (* (- 1) x6))) (let ((.def_121 (+ .def_0 .def_120))) (let ((.def_122 (< .def_121 (- 1)))) (let ((.def_123 (not .def_122))) (let ((.def_124 (and .def_123 .def_119))) (let ((.def_125 (not .def_124))) (let ((.def_126 (and .def_125 .def_116))) (let ((.def_127 (and .def_126 .def_112))) (let ((.def_128 (< .def_61 (- 1)))) (let ((.def_129 (not .def_128))) (let ((.def_130 (and .def_36 .def_129))) (let ((.def_131 (+ .def_1 .def_5))) (let ((.def_132 (< .def_131 1))) (let ((.def_133 (not .def_132))) (let ((.def_134 (or .def_133 .def_66))) (let ((.def_135 (or .def_134 .def_130))) (let ((.def_136 (not .def_135))) (let ((.def_137 (+ .def_120 .def_40))) (let ((.def_138 (< .def_137 1))) (let ((.def_139 (or A5 .def_138))) (let ((.def_140 (< .def_19 1))) (let ((.def_141 (not .def_140))) (let ((.def_142 (or A6 .def_141))) (let ((.def_143 (and .def_142 .def_139))) (let ((.def_144 (or .def_143 .def_136))) (let ((.def_145 (not .def_144))) (let ((.def_146 (and .def_145 .def_127))) (let ((.def_147 (not .def_146))) (let ((.def_148 (+ .def_19 .def_88))) (let ((.def_149 (< .def_148 1))) (let ((.def_150 (not .def_149))) (let ((.def_151 (not .def_20))) (let ((.def_152 (and .def_151 .def_150))) (let ((.def_153 (+ .def_73 .def_24))) (let ((.def_154 (< .def_153 (- 1)))) (let ((.def_155 (or .def_154 A5))) (let ((.def_156 (not .def_155))) (let ((.def_157 (and .def_156 .def_152))) (let ((.def_158 (< .def_120 (- 1)))) (let ((.def_159 (not .def_158))) (let ((.def_160 (< .def_24 1))) (let ((.def_161 (not .def_160))) (let ((.def_162 (and .def_161 .def_159))) (let ((.def_163 (not .def_162))) (let ((.def_164 (< .def_23 (- 1)))) (let ((.def_165 (or A1 .def_164))) (let ((.def_166 (or .def_165 .def_163))) (let ((.def_167 (not .def_166))) (let ((.def_168 (or .def_167 .def_157))) (let ((.def_169 (* 1 x2))) (let ((.def_170 (< .def_169 1))) (let ((.def_171 (not .def_170))) (let ((.def_172 (or .def_171 .def_18))) (let ((.def_173 (not .def_47))) (let ((.def_174 (and .def_173 A7))) (let ((.def_175 (not .def_174))) (let ((.def_176 (or .def_175 .def_172))) (let ((.def_177 (not .def_176))) (let ((.def_178 (not .def_60))) (let ((.def_179 (or A6 .def_178))) (let ((.def_180 (not .def_179))) (let ((.def_181 (and A5 A3))) (let ((.def_182 (or .def_181 .def_180))) (let ((.def_183 (not .def_182))) (let ((.def_184 (and .def_183 .def_177))) (let ((.def_185 (not .def_184))) (let ((.def_186 (or .def_185 .def_168))) (let ((.def_187 (not .def_186))) (let ((.def_188 (= .def_187 .def_147))) (let ((.def_189 (not .def_188))) (let ((.def_190 (or .def_189 .def_99))) (let ((.def_191 (not .def_190))) (let ((.def_192 (+ .def_23 .def_74))) (let ((.def_193 (< .def_192 1))) (let ((.def_194 (not .def_193))) (let ((.def_195 (and .def_194 A3))) (let ((.def_196 (not .def_195))) (let ((.def_197 (or A4 A4))) (let ((.def_198 (and .def_197 .def_196))) (let ((.def_199 (and .def_39 .def_37))) (let ((.def_200 (not .def_199))) (let ((.def_201 (< .def_117 (- 1)))) (let ((.def_202 (not .def_201))) (let ((.def_203 (+ .def_59 .def_88))) (let ((.def_204 (< .def_203 (- 1)))) (let ((.def_205 (and .def_204 .def_202))) (let ((.def_206 (and .def_205 .def_200))) (let ((.def_207 (or .def_206 .def_198))) (let ((.def_208 (= .def_10 .def_18))) (let ((.def_209 (not .def_208))) (let ((.def_210 (+ .def_61 .def_104))) (let ((.def_211 (< .def_210 (- 1)))) (let ((.def_212 (or A2 .def_211))) (let ((.def_213 (not .def_212))) (let ((.def_214 (or .def_213 .def_209))) (let ((.def_215 (not A9))) (let ((.def_216 (and .def_215 A7))) (let ((.def_217 (not .def_216))) (let ((.def_218 (not .def_57))) (let ((.def_219 (* (- 1) x0))) (let ((.def_220 (< .def_219 1))) (let ((.def_221 (not .def_220))) (let ((.def_222 (= .def_221 .def_218))) (let ((.def_223 (not .def_222))) (let ((.def_224 (and .def_223 .def_217))) (let ((.def_225 (= .def_224 .def_214))) (let ((.def_226 (= .def_225 .def_207))) (let ((.def_227 (not .def_226))) (let ((.def_228 (+ .def_46 .def_19))) (let ((.def_229 (< .def_228 (- 1)))) (let ((.def_230 (not .def_229))) (let ((.def_231 (+ .def_1 .def_73))) (let ((.def_232 (< .def_231 1))) (let ((.def_233 (not .def_232))) (let ((.def_234 (or .def_233 .def_230))) (let ((.def_235 (not .def_234))) (let ((.def_236 (+ .def_73 .def_0))) (let ((.def_237 (< .def_236 1))) (let ((.def_238 (not .def_237))) (let ((.def_239 (and .def_37 .def_238))) (let ((.def_240 (not .def_239))) (let ((.def_241 (and .def_240 .def_235))) (let ((.def_242 (+ .def_59 .def_61))) (let ((.def_243 (< .def_242 1))) (let ((.def_244 (or .def_36 .def_243))) (let ((.def_245 (not A8))) (let ((.def_246 (and .def_37 .def_245))) (let ((.def_247 (not .def_246))) (let ((.def_248 (or .def_247 .def_244))) (let ((.def_249 (not .def_248))) (let ((.def_250 (and .def_249 .def_241))) (let ((.def_251 (not .def_250))) (let ((.def_252 (< .def_0 (- 1)))) (let ((.def_253 (not .def_252))) (let ((.def_254 (+ .def_5 .def_19))) (let ((.def_255 (< .def_254 1))) (let ((.def_256 (or .def_255 .def_253))) (let ((.def_257 (and A4 .def_173))) (let ((.def_258 (not .def_257))) (let ((.def_259 (and .def_258 .def_256))) (let ((.def_260 (and .def_245 .def_36))) (let ((.def_261 (or .def_245 A6))) (let ((.def_262 (and .def_261 .def_260))) (let ((.def_263 (not .def_262))) (let ((.def_264 (or .def_263 .def_259))) (let ((.def_265 (and .def_264 .def_251))) (let ((.def_266 (not .def_265))) (let ((.def_267 (and .def_266 .def_227))) (let ((.def_268 (< .def_74 (- 1)))) (let ((.def_269 (and .def_268 .def_66))) (let ((.def_270 (+ .def_67 .def_73))) (let ((.def_271 (< .def_270 (- 1)))) (let ((.def_272 (not .def_271))) (let ((.def_273 (or .def_202 .def_272))) (let ((.def_274 (and .def_273 .def_269))) (let ((.def_275 (or .def_220 A3))) (let ((.def_276 (< .def_12 (- 1)))) (let ((.def_277 (not .def_276))) (let ((.def_278 (and A9 .def_277))) (let ((.def_279 (or .def_278 .def_275))) (let ((.def_280 (and .def_279 .def_274))) (let ((.def_281 (< .def_219 (- 1)))) (let ((.def_282 (or .def_281 A1))) (let ((.def_283 (not .def_282))) (let ((.def_284 (< .def_148 (- 1)))) (let ((.def_285 (or .def_284 A6))) (let ((.def_286 (not .def_285))) (let ((.def_287 (or .def_286 .def_283))) (let ((.def_288 (+ .def_12 .def_19))) (let ((.def_289 (< .def_288 1))) (let ((.def_290 (not .def_289))) (let ((.def_291 (not A5))) (let ((.def_292 (or .def_291 .def_290))) (let ((.def_293 (< .def_23 1))) (let ((.def_294 (< .def_88 1))) (let ((.def_295 (not .def_294))) (let ((.def_296 (or .def_295 .def_293))) (let ((.def_297 (= .def_296 .def_292))) (let ((.def_298 (and .def_297 .def_287))) (let ((.def_299 (not .def_298))) (let ((.def_300 (or .def_299 .def_280))) (let ((.def_301 (not .def_300))) (let ((.def_302 (or A4 .def_119))) (let ((.def_303 (not .def_302))) (let ((.def_304 (+ .def_59 .def_219))) (let ((.def_305 (< .def_304 1))) (let ((.def_306 (or .def_305 A7))) (let ((.def_307 (not .def_306))) (let ((.def_308 (and .def_307 .def_303))) (let ((.def_309 (+ .def_0 .def_61))) (let ((.def_310 (< .def_309 (- 1)))) (let ((.def_311 (and A8 .def_310))) (let ((.def_312 (not .def_311))) (let ((.def_313 (or .def_245 A7))) (let ((.def_314 (not .def_313))) (let ((.def_315 (or .def_314 .def_312))) (let ((.def_316 (not .def_315))) (let ((.def_317 (or .def_316 .def_308))) (let ((.def_318 (not .def_317))) (let ((.def_319 (or .def_50 A2))) (let ((.def_320 (and .def_56 .def_245))) (let ((.def_321 (not .def_320))) (let ((.def_322 (or .def_321 .def_319))) (let ((.def_323 (not .def_322))) (let ((.def_324 (+ .def_40 .def_0))) (let ((.def_325 (< .def_324 (- 1)))) (let ((.def_326 (not .def_325))) (let ((.def_327 (= .def_326 .def_215))) (let ((.def_328 (not .def_327))) (let ((.def_329 (and .def_66 A1))) (let ((.def_330 (= .def_329 .def_328))) (let ((.def_331 (not .def_330))) (let ((.def_332 (or .def_331 .def_323))) (let ((.def_333 (= .def_332 .def_318))) (let ((.def_334 (not .def_333))) (let ((.def_335 (or .def_334 .def_301))) (let ((.def_336 (= .def_335 .def_267))) (let ((.def_337 (not .def_336))) (let ((.def_338 (and .def_337 .def_191))) (let ((.def_339 (not .def_338))) (let ((.def_340 (<= x9 1))) (let ((.def_341 (<= 0 x9))) (let ((.def_342 (<= x8 1))) (let ((.def_343 (<= 0 x8))) (let ((.def_344 (<= x7 1))) (let ((.def_345 (<= 0 x7))) (let ((.def_346 (<= x6 1))) (let ((.def_347 (<= 0 x6))) (let ((.def_348 (<= x5 1))) (let ((.def_349 (<= 0 x5))) (let ((.def_350 (<= x4 1))) (let ((.def_351 (<= 0 x4))) (let ((.def_352 (<= x3 1))) (let ((.def_353 (<= 0 x3))) (let ((.def_354 (<= x2 1))) (let ((.def_355 (<= 0 x2))) (let ((.def_356 (<= x1 1))) (let ((.def_357 (<= 0 x1))) (let ((.def_358 (<= x0 1))) (let ((.def_359 (<= 0 x0))) (let ((.def_360 (and .def_359 .def_358 .def_357 .def_356 .def_355 .def_354 .def_353 .def_352 .def_351 .def_350 .def_349 .def_348 .def_347 .def_346 .def_345 .def_344 .def_343 .def_342 .def_341 .def_340 .def_339))) .def_360))))))))))))))))))))))))))))))))))))))))))))))))))))))))))))))))))))))))))))))))))))))))))))))))))))))))))))))))))))))))))))))))))))))))))))))))))))))))))))))))))))))))))))))))))))))))))))))))))))))))))))))))))))))))))))))))))))))))))))))))))))))))))))))))))))))))))))))))))))))))))))))))))))))))))))))))))))))))))))))))))))))))))))))))))))))))))))))))))))))))))
(check-sat)
